\ LP format - for model browsing. Use MPS format to capture full model detail.
\ Signature: 0xa1556f69791938a5
Minimize
  Cmax
Subject To
 assign_0_0: y_0_0_0 + y_1_0_0 + y_2_0_0 = 1
 proc_time_0_0: Ps_0_0 - 147 y_0_0_0 - 123 y_1_0_0 - 145 y_2_0_0 = 0
 assign_0_1: y_3_0_1 + y_1_0_1 = 1
 proc_time_0_1: Ps_0_1 - 140 y_3_0_1 - 130 y_1_0_1 = 0
 assign_0_2: y_3_0_2 + y_4_0_2 = 1
 proc_time_0_2: Ps_0_2 - 150 y_3_0_2 - 160 y_4_0_2 = 0
 seq_0_0_to_1: t_0_0 + Ps_0_0 - t_0_1 <= 0
 seq_0_1_to_2: t_0_1 + Ps_0_1 - t_0_2 <= 0
 assign_1_0: y_0_1_0 + y_2_1_0 = 1
 proc_time_1_0: Ps_1_0 - 214 y_0_1_0 - 150 y_2_1_0 = 0
 assign_1_1: y_2_1_1 + y_1_1_1 = 1
 proc_time_1_1: Ps_1_1 - 87 y_2_1_1 - 66 y_1_1_1 = 0
 assign_1_2: y_4_1_2 + y_5_1_2 = 1
 proc_time_1_2: Ps_1_2 - 178 y_4_1_2 - 95 y_5_1_2 = 0
 seq_1_0_to_1: t_1_0 + Ps_1_0 - t_1_1 <= 0
 seq_1_1_to_2: t_1_1 + Ps_1_1 - t_1_2 <= 0
 assign_2_0: y_0_2_0 + y_1_2_0 = 1
 proc_time_2_0: Ps_2_0 - 87 y_0_2_0 - 62 y_1_2_0 = 0
 assign_2_1: y_2_2_1 + y_3_2_1 = 1
 proc_time_2_1: Ps_2_1 - 180 y_2_2_1 - 105 y_3_2_1 = 0
 assign_2_2: y_3_2_2 + y_4_2_2 + y_5_2_2 = 1
 proc_time_2_2: Ps_2_2 - 190 y_3_2_2 - 100 y_4_2_2 - 153 y_5_2_2 = 0
 seq_2_0_to_1: t_2_0 + Ps_2_0 - t_2_1 <= 0
 seq_2_1_to_2: t_2_1 + Ps_2_1 - t_2_2 <= 0
 assign_3_0: y_0_3_0 + y_1_3_0 = 1
 proc_time_3_0: Ps_3_0 - 87 y_0_3_0 - 65 y_1_3_0 = 0
 assign_3_1: y_4_3_1 = 1
 proc_time_3_1: Ps_3_1 - 173 y_4_3_1 = 0
 assign_3_2: y_3_3_2 + y_5_3_2 = 1
 proc_time_3_2: Ps_3_2 - 145 y_3_3_2 - 136 y_5_3_2 = 0
 seq_3_0_to_1: t_3_0 + Ps_3_0 - t_3_1 <= 0
 seq_3_1_to_2: t_3_1 + Ps_3_1 - t_3_2 <= 0
 assign_4_0: y_1_4_0 + y_2_4_0 + y_0_4_0 = 1
 proc_time_4_0: Ps_4_0 - 123 y_1_4_0 - 145 y_2_4_0 - 128 y_0_4_0 = 0
 assign_4_1: y_2_4_1 + y_3_4_1 + y_4_4_1 = 1
 proc_time_4_1: Ps_4_1 - 86 y_2_4_1 - 65 y_3_4_1 - 47 y_4_4_1 = 0
 assign_4_2: y_4_4_2 + y_5_4_2 = 1
 proc_time_4_2: Ps_4_2 - 110 y_4_4_2 - 85 y_5_4_2 = 0
 seq_4_0_to_1: t_4_0 + Ps_4_0 - t_4_1 <= 0
 seq_4_1_to_2: t_4_1 + Ps_4_1 - t_4_2 <= 0
 no_overlap1_0_0_0_1_0: t_0_0 + Ps_0_0 + 10646 y_0_0_0 - t_1_0
   + 10646 y_0_1_0 + 10646 z_0_0_0_1_0 <= 31938
 no_overlap2_0_0_0_1_0: - t_0_0 + 10646 y_0_0_0 + t_1_0 + Ps_1_0
   + 10646 y_0_1_0 - 10646 z_0_0_0_1_0 <= 21292
 no_overlap1_0_0_0_2_0: t_0_0 + Ps_0_0 + 10646 y_0_0_0 - t_2_0
   + 10646 y_0_2_0 + 10646 z_0_0_0_2_0 <= 31938
 no_overlap2_0_0_0_2_0: - t_0_0 + 10646 y_0_0_0 + t_2_0 + Ps_2_0
   + 10646 y_0_2_0 - 10646 z_0_0_0_2_0 <= 21292
 no_overlap1_0_0_0_3_0: t_0_0 + Ps_0_0 + 10646 y_0_0_0 - t_3_0
   + 10646 y_0_3_0 + 10646 z_0_0_0_3_0 <= 31938
 no_overlap2_0_0_0_3_0: - t_0_0 + 10646 y_0_0_0 + t_3_0 + Ps_3_0
   + 10646 y_0_3_0 - 10646 z_0_0_0_3_0 <= 21292
 no_overlap1_0_0_0_4_0: t_0_0 + Ps_0_0 + 10646 y_0_0_0 - t_4_0
   + 10646 y_0_4_0 + 10646 z_0_0_0_4_0 <= 31938
 no_overlap2_0_0_0_4_0: - t_0_0 + 10646 y_0_0_0 + t_4_0 + Ps_4_0
   + 10646 y_0_4_0 - 10646 z_0_0_0_4_0 <= 21292
 no_overlap1_0_1_0_2_0: t_1_0 + Ps_1_0 + 10646 y_0_1_0 - t_2_0
   + 10646 y_0_2_0 + 10646 z_0_1_0_2_0 <= 31938
 no_overlap2_0_1_0_2_0: - t_1_0 + 10646 y_0_1_0 + t_2_0 + Ps_2_0
   + 10646 y_0_2_0 - 10646 z_0_1_0_2_0 <= 21292
 no_overlap1_0_1_0_3_0: t_1_0 + Ps_1_0 + 10646 y_0_1_0 - t_3_0
   + 10646 y_0_3_0 + 10646 z_0_1_0_3_0 <= 31938
 no_overlap2_0_1_0_3_0: - t_1_0 + 10646 y_0_1_0 + t_3_0 + Ps_3_0
   + 10646 y_0_3_0 - 10646 z_0_1_0_3_0 <= 21292
 no_overlap1_0_1_0_4_0: t_1_0 + Ps_1_0 + 10646 y_0_1_0 - t_4_0
   + 10646 y_0_4_0 + 10646 z_0_1_0_4_0 <= 31938
 no_overlap2_0_1_0_4_0: - t_1_0 + 10646 y_0_1_0 + t_4_0 + Ps_4_0
   + 10646 y_0_4_0 - 10646 z_0_1_0_4_0 <= 21292
 no_overlap1_0_2_0_3_0: t_2_0 + Ps_2_0 + 10646 y_0_2_0 - t_3_0
   + 10646 y_0_3_0 + 10646 z_0_2_0_3_0 <= 31938
 no_overlap2_0_2_0_3_0: - t_2_0 + 10646 y_0_2_0 + t_3_0 + Ps_3_0
   + 10646 y_0_3_0 - 10646 z_0_2_0_3_0 <= 21292
 no_overlap1_0_2_0_4_0: t_2_0 + Ps_2_0 + 10646 y_0_2_0 - t_4_0
   + 10646 y_0_4_0 + 10646 z_0_2_0_4_0 <= 31938
 no_overlap2_0_2_0_4_0: - t_2_0 + 10646 y_0_2_0 + t_4_0 + Ps_4_0
   + 10646 y_0_4_0 - 10646 z_0_2_0_4_0 <= 21292
 no_overlap1_0_3_0_4_0: t_3_0 + Ps_3_0 + 10646 y_0_3_0 - t_4_0
   + 10646 y_0_4_0 + 10646 z_0_3_0_4_0 <= 31938
 no_overlap2_0_3_0_4_0: - t_3_0 + 10646 y_0_3_0 + t_4_0 + Ps_4_0
   + 10646 y_0_4_0 - 10646 z_0_3_0_4_0 <= 21292
 no_overlap1_1_0_0_0_1: t_0_0 + Ps_0_0 + 10646 y_1_0_0 - t_0_1
   + 10646 y_1_0_1 + 10646 z_1_0_0_0_1 <= 31938
 no_overlap2_1_0_0_0_1: - t_0_0 + 10646 y_1_0_0 + t_0_1 + Ps_0_1
   + 10646 y_1_0_1 - 10646 z_1_0_0_0_1 <= 21292
 no_overlap1_1_0_0_1_1: t_0_0 + Ps_0_0 + 10646 y_1_0_0 - t_1_1
   + 10646 y_1_1_1 + 10646 z_1_0_0_1_1 <= 31938
 no_overlap2_1_0_0_1_1: - t_0_0 + 10646 y_1_0_0 + t_1_1 + Ps_1_1
   + 10646 y_1_1_1 - 10646 z_1_0_0_1_1 <= 21292
 no_overlap1_1_0_0_2_0: t_0_0 + Ps_0_0 + 10646 y_1_0_0 - t_2_0
   + 10646 y_1_2_0 + 10646 z_1_0_0_2_0 <= 31938
 no_overlap2_1_0_0_2_0: - t_0_0 + 10646 y_1_0_0 + t_2_0 + Ps_2_0
   + 10646 y_1_2_0 - 10646 z_1_0_0_2_0 <= 21292
 no_overlap1_1_0_0_3_0: t_0_0 + Ps_0_0 + 10646 y_1_0_0 - t_3_0
   + 10646 y_1_3_0 + 10646 z_1_0_0_3_0 <= 31938
 no_overlap2_1_0_0_3_0: - t_0_0 + 10646 y_1_0_0 + t_3_0 + Ps_3_0
   + 10646 y_1_3_0 - 10646 z_1_0_0_3_0 <= 21292
 no_overlap1_1_0_0_4_0: t_0_0 + Ps_0_0 + 10646 y_1_0_0 - t_4_0
   + 10646 y_1_4_0 + 10646 z_1_0_0_4_0 <= 31938
 no_overlap2_1_0_0_4_0: - t_0_0 + 10646 y_1_0_0 + t_4_0 + Ps_4_0
   + 10646 y_1_4_0 - 10646 z_1_0_0_4_0 <= 21292
 no_overlap1_1_0_1_1_1: t_0_1 + Ps_0_1 + 10646 y_1_0_1 - t_1_1
   + 10646 y_1_1_1 + 10646 z_1_0_1_1_1 <= 31938
 no_overlap2_1_0_1_1_1: - t_0_1 + 10646 y_1_0_1 + t_1_1 + Ps_1_1
   + 10646 y_1_1_1 - 10646 z_1_0_1_1_1 <= 21292
 no_overlap1_1_0_1_2_0: t_0_1 + Ps_0_1 + 10646 y_1_0_1 - t_2_0
   + 10646 y_1_2_0 + 10646 z_1_0_1_2_0 <= 31938
 no_overlap2_1_0_1_2_0: - t_0_1 + 10646 y_1_0_1 + t_2_0 + Ps_2_0
   + 10646 y_1_2_0 - 10646 z_1_0_1_2_0 <= 21292
 no_overlap1_1_0_1_3_0: t_0_1 + Ps_0_1 + 10646 y_1_0_1 - t_3_0
   + 10646 y_1_3_0 + 10646 z_1_0_1_3_0 <= 31938
 no_overlap2_1_0_1_3_0: - t_0_1 + 10646 y_1_0_1 + t_3_0 + Ps_3_0
   + 10646 y_1_3_0 - 10646 z_1_0_1_3_0 <= 21292
 no_overlap1_1_0_1_4_0: t_0_1 + Ps_0_1 + 10646 y_1_0_1 - t_4_0
   + 10646 y_1_4_0 + 10646 z_1_0_1_4_0 <= 31938
 no_overlap2_1_0_1_4_0: - t_0_1 + 10646 y_1_0_1 + t_4_0 + Ps_4_0
   + 10646 y_1_4_0 - 10646 z_1_0_1_4_0 <= 21292
 no_overlap1_1_1_1_2_0: t_1_1 + Ps_1_1 + 10646 y_1_1_1 - t_2_0
   + 10646 y_1_2_0 + 10646 z_1_1_1_2_0 <= 31938
 no_overlap2_1_1_1_2_0: - t_1_1 + 10646 y_1_1_1 + t_2_0 + Ps_2_0
   + 10646 y_1_2_0 - 10646 z_1_1_1_2_0 <= 21292
 no_overlap1_1_1_1_3_0: t_1_1 + Ps_1_1 + 10646 y_1_1_1 - t_3_0
   + 10646 y_1_3_0 + 10646 z_1_1_1_3_0 <= 31938
 no_overlap2_1_1_1_3_0: - t_1_1 + 10646 y_1_1_1 + t_3_0 + Ps_3_0
   + 10646 y_1_3_0 - 10646 z_1_1_1_3_0 <= 21292
 no_overlap1_1_1_1_4_0: t_1_1 + Ps_1_1 + 10646 y_1_1_1 - t_4_0
   + 10646 y_1_4_0 + 10646 z_1_1_1_4_0 <= 31938
 no_overlap2_1_1_1_4_0: - t_1_1 + 10646 y_1_1_1 + t_4_0 + Ps_4_0
   + 10646 y_1_4_0 - 10646 z_1_1_1_4_0 <= 21292
 no_overlap1_1_2_0_3_0: t_2_0 + Ps_2_0 + 10646 y_1_2_0 - t_3_0
   + 10646 y_1_3_0 + 10646 z_1_2_0_3_0 <= 31938
 no_overlap2_1_2_0_3_0: - t_2_0 + 10646 y_1_2_0 + t_3_0 + Ps_3_0
   + 10646 y_1_3_0 - 10646 z_1_2_0_3_0 <= 21292
 no_overlap1_1_2_0_4_0: t_2_0 + Ps_2_0 + 10646 y_1_2_0 - t_4_0
   + 10646 y_1_4_0 + 10646 z_1_2_0_4_0 <= 31938
 no_overlap2_1_2_0_4_0: - t_2_0 + 10646 y_1_2_0 + t_4_0 + Ps_4_0
   + 10646 y_1_4_0 - 10646 z_1_2_0_4_0 <= 21292
 no_overlap1_1_3_0_4_0: t_3_0 + Ps_3_0 + 10646 y_1_3_0 - t_4_0
   + 10646 y_1_4_0 + 10646 z_1_3_0_4_0 <= 31938
 no_overlap2_1_3_0_4_0: - t_3_0 + 10646 y_1_3_0 + t_4_0 + Ps_4_0
   + 10646 y_1_4_0 - 10646 z_1_3_0_4_0 <= 21292
 no_overlap1_2_0_0_1_0: t_0_0 + Ps_0_0 + 10646 y_2_0_0 - t_1_0
   + 10646 y_2_1_0 + 10646 z_2_0_0_1_0 <= 31938
 no_overlap2_2_0_0_1_0: - t_0_0 + 10646 y_2_0_0 + t_1_0 + Ps_1_0
   + 10646 y_2_1_0 - 10646 z_2_0_0_1_0 <= 21292
 no_overlap1_2_0_0_1_1: t_0_0 + Ps_0_0 + 10646 y_2_0_0 - t_1_1
   + 10646 y_2_1_1 + 10646 z_2_0_0_1_1 <= 31938
 no_overlap2_2_0_0_1_1: - t_0_0 + 10646 y_2_0_0 + t_1_1 + Ps_1_1
   + 10646 y_2_1_1 - 10646 z_2_0_0_1_1 <= 21292
 no_overlap1_2_0_0_2_1: t_0_0 + Ps_0_0 + 10646 y_2_0_0 - t_2_1
   + 10646 y_2_2_1 + 10646 z_2_0_0_2_1 <= 31938
 no_overlap2_2_0_0_2_1: - t_0_0 + 10646 y_2_0_0 + t_2_1 + Ps_2_1
   + 10646 y_2_2_1 - 10646 z_2_0_0_2_1 <= 21292
 no_overlap1_2_0_0_4_0: t_0_0 + Ps_0_0 + 10646 y_2_0_0 - t_4_0
   + 10646 y_2_4_0 + 10646 z_2_0_0_4_0 <= 31938
 no_overlap2_2_0_0_4_0: - t_0_0 + 10646 y_2_0_0 + t_4_0 + Ps_4_0
   + 10646 y_2_4_0 - 10646 z_2_0_0_4_0 <= 21292
 no_overlap1_2_0_0_4_1: t_0_0 + Ps_0_0 + 10646 y_2_0_0 - t_4_1
   + 10646 y_2_4_1 + 10646 z_2_0_0_4_1 <= 31938
 no_overlap2_2_0_0_4_1: - t_0_0 + 10646 y_2_0_0 + t_4_1 + Ps_4_1
   + 10646 y_2_4_1 - 10646 z_2_0_0_4_1 <= 21292
 no_overlap1_2_1_0_1_1: t_1_0 + Ps_1_0 + 10646 y_2_1_0 - t_1_1
   + 10646 y_2_1_1 + 10646 z_2_1_0_1_1 <= 31938
 no_overlap2_2_1_0_1_1: - t_1_0 + 10646 y_2_1_0 + t_1_1 + Ps_1_1
   + 10646 y_2_1_1 - 10646 z_2_1_0_1_1 <= 21292
 no_overlap1_2_1_0_2_1: t_1_0 + Ps_1_0 + 10646 y_2_1_0 - t_2_1
   + 10646 y_2_2_1 + 10646 z_2_1_0_2_1 <= 31938
 no_overlap2_2_1_0_2_1: - t_1_0 + 10646 y_2_1_0 + t_2_1 + Ps_2_1
   + 10646 y_2_2_1 - 10646 z_2_1_0_2_1 <= 21292
 no_overlap1_2_1_0_4_0: t_1_0 + Ps_1_0 + 10646 y_2_1_0 - t_4_0
   + 10646 y_2_4_0 + 10646 z_2_1_0_4_0 <= 31938
 no_overlap2_2_1_0_4_0: - t_1_0 + 10646 y_2_1_0 + t_4_0 + Ps_4_0
   + 10646 y_2_4_0 - 10646 z_2_1_0_4_0 <= 21292
 no_overlap1_2_1_0_4_1: t_1_0 + Ps_1_0 + 10646 y_2_1_0 - t_4_1
   + 10646 y_2_4_1 + 10646 z_2_1_0_4_1 <= 31938
 no_overlap2_2_1_0_4_1: - t_1_0 + 10646 y_2_1_0 + t_4_1 + Ps_4_1
   + 10646 y_2_4_1 - 10646 z_2_1_0_4_1 <= 21292
 no_overlap1_2_1_1_2_1: t_1_1 + Ps_1_1 + 10646 y_2_1_1 - t_2_1
   + 10646 y_2_2_1 + 10646 z_2_1_1_2_1 <= 31938
 no_overlap2_2_1_1_2_1: - t_1_1 + 10646 y_2_1_1 + t_2_1 + Ps_2_1
   + 10646 y_2_2_1 - 10646 z_2_1_1_2_1 <= 21292
 no_overlap1_2_1_1_4_0: t_1_1 + Ps_1_1 + 10646 y_2_1_1 - t_4_0
   + 10646 y_2_4_0 + 10646 z_2_1_1_4_0 <= 31938
 no_overlap2_2_1_1_4_0: - t_1_1 + 10646 y_2_1_1 + t_4_0 + Ps_4_0
   + 10646 y_2_4_0 - 10646 z_2_1_1_4_0 <= 21292
 no_overlap1_2_1_1_4_1: t_1_1 + Ps_1_1 + 10646 y_2_1_1 - t_4_1
   + 10646 y_2_4_1 + 10646 z_2_1_1_4_1 <= 31938
 no_overlap2_2_1_1_4_1: - t_1_1 + 10646 y_2_1_1 + t_4_1 + Ps_4_1
   + 10646 y_2_4_1 - 10646 z_2_1_1_4_1 <= 21292
 no_overlap1_2_2_1_4_0: t_2_1 + Ps_2_1 + 10646 y_2_2_1 - t_4_0
   + 10646 y_2_4_0 + 10646 z_2_2_1_4_0 <= 31938
 no_overlap2_2_2_1_4_0: - t_2_1 + 10646 y_2_2_1 + t_4_0 + Ps_4_0
   + 10646 y_2_4_0 - 10646 z_2_2_1_4_0 <= 21292
 no_overlap1_2_2_1_4_1: t_2_1 + Ps_2_1 + 10646 y_2_2_1 - t_4_1
   + 10646 y_2_4_1 + 10646 z_2_2_1_4_1 <= 31938
 no_overlap2_2_2_1_4_1: - t_2_1 + 10646 y_2_2_1 + t_4_1 + Ps_4_1
   + 10646 y_2_4_1 - 10646 z_2_2_1_4_1 <= 21292
 no_overlap1_2_4_0_4_1: t_4_0 + Ps_4_0 + 10646 y_2_4_0 - t_4_1
   + 10646 y_2_4_1 + 10646 z_2_4_0_4_1 <= 31938
 no_overlap2_2_4_0_4_1: - t_4_0 + 10646 y_2_4_0 + t_4_1 + Ps_4_1
   + 10646 y_2_4_1 - 10646 z_2_4_0_4_1 <= 21292
 no_overlap1_3_0_1_0_2: t_0_1 + Ps_0_1 + 10646 y_3_0_1 - t_0_2
   + 10646 y_3_0_2 + 10646 z_3_0_1_0_2 <= 31938
 no_overlap2_3_0_1_0_2: - t_0_1 + 10646 y_3_0_1 + t_0_2 + Ps_0_2
   + 10646 y_3_0_2 - 10646 z_3_0_1_0_2 <= 21292
 no_overlap1_3_0_1_2_1: t_0_1 + Ps_0_1 + 10646 y_3_0_1 - t_2_1
   + 10646 y_3_2_1 + 10646 z_3_0_1_2_1 <= 31938
 no_overlap2_3_0_1_2_1: - t_0_1 + 10646 y_3_0_1 + t_2_1 + Ps_2_1
   + 10646 y_3_2_1 - 10646 z_3_0_1_2_1 <= 21292
 no_overlap1_3_0_1_2_2: t_0_1 + Ps_0_1 + 10646 y_3_0_1 - t_2_2
   + 10646 y_3_2_2 + 10646 z_3_0_1_2_2 <= 31938
 no_overlap2_3_0_1_2_2: - t_0_1 + 10646 y_3_0_1 + t_2_2 + Ps_2_2
   + 10646 y_3_2_2 - 10646 z_3_0_1_2_2 <= 21292
 no_overlap1_3_0_1_3_2: t_0_1 + Ps_0_1 + 10646 y_3_0_1 - t_3_2
   + 10646 y_3_3_2 + 10646 z_3_0_1_3_2 <= 31938
 no_overlap2_3_0_1_3_2: - t_0_1 + 10646 y_3_0_1 + t_3_2 + Ps_3_2
   + 10646 y_3_3_2 - 10646 z_3_0_1_3_2 <= 21292
 no_overlap1_3_0_1_4_1: t_0_1 + Ps_0_1 + 10646 y_3_0_1 - t_4_1
   + 10646 y_3_4_1 + 10646 z_3_0_1_4_1 <= 31938
 no_overlap2_3_0_1_4_1: - t_0_1 + 10646 y_3_0_1 + t_4_1 + Ps_4_1
   + 10646 y_3_4_1 - 10646 z_3_0_1_4_1 <= 21292
 no_overlap1_3_0_2_2_1: t_0_2 + Ps_0_2 + 10646 y_3_0_2 - t_2_1
   + 10646 y_3_2_1 + 10646 z_3_0_2_2_1 <= 31938
 no_overlap2_3_0_2_2_1: - t_0_2 + 10646 y_3_0_2 + t_2_1 + Ps_2_1
   + 10646 y_3_2_1 - 10646 z_3_0_2_2_1 <= 21292
 no_overlap1_3_0_2_2_2: t_0_2 + Ps_0_2 + 10646 y_3_0_2 - t_2_2
   + 10646 y_3_2_2 + 10646 z_3_0_2_2_2 <= 31938
 no_overlap2_3_0_2_2_2: - t_0_2 + 10646 y_3_0_2 + t_2_2 + Ps_2_2
   + 10646 y_3_2_2 - 10646 z_3_0_2_2_2 <= 21292
 no_overlap1_3_0_2_3_2: t_0_2 + Ps_0_2 + 10646 y_3_0_2 - t_3_2
   + 10646 y_3_3_2 + 10646 z_3_0_2_3_2 <= 31938
 no_overlap2_3_0_2_3_2: - t_0_2 + 10646 y_3_0_2 + t_3_2 + Ps_3_2
   + 10646 y_3_3_2 - 10646 z_3_0_2_3_2 <= 21292
 no_overlap1_3_0_2_4_1: t_0_2 + Ps_0_2 + 10646 y_3_0_2 - t_4_1
   + 10646 y_3_4_1 + 10646 z_3_0_2_4_1 <= 31938
 no_overlap2_3_0_2_4_1: - t_0_2 + 10646 y_3_0_2 + t_4_1 + Ps_4_1
   + 10646 y_3_4_1 - 10646 z_3_0_2_4_1 <= 21292
 no_overlap1_3_2_1_2_2: t_2_1 + Ps_2_1 + 10646 y_3_2_1 - t_2_2
   + 10646 y_3_2_2 + 10646 z_3_2_1_2_2 <= 31938
 no_overlap2_3_2_1_2_2: - t_2_1 + 10646 y_3_2_1 + t_2_2 + Ps_2_2
   + 10646 y_3_2_2 - 10646 z_3_2_1_2_2 <= 21292
 no_overlap1_3_2_1_3_2: t_2_1 + Ps_2_1 + 10646 y_3_2_1 - t_3_2
   + 10646 y_3_3_2 + 10646 z_3_2_1_3_2 <= 31938
 no_overlap2_3_2_1_3_2: - t_2_1 + 10646 y_3_2_1 + t_3_2 + Ps_3_2
   + 10646 y_3_3_2 - 10646 z_3_2_1_3_2 <= 21292
 no_overlap1_3_2_1_4_1: t_2_1 + Ps_2_1 + 10646 y_3_2_1 - t_4_1
   + 10646 y_3_4_1 + 10646 z_3_2_1_4_1 <= 31938
 no_overlap2_3_2_1_4_1: - t_2_1 + 10646 y_3_2_1 + t_4_1 + Ps_4_1
   + 10646 y_3_4_1 - 10646 z_3_2_1_4_1 <= 21292
 no_overlap1_3_2_2_3_2: t_2_2 + Ps_2_2 + 10646 y_3_2_2 - t_3_2
   + 10646 y_3_3_2 + 10646 z_3_2_2_3_2 <= 31938
 no_overlap2_3_2_2_3_2: - t_2_2 + 10646 y_3_2_2 + t_3_2 + Ps_3_2
   + 10646 y_3_3_2 - 10646 z_3_2_2_3_2 <= 21292
 no_overlap1_3_2_2_4_1: t_2_2 + Ps_2_2 + 10646 y_3_2_2 - t_4_1
   + 10646 y_3_4_1 + 10646 z_3_2_2_4_1 <= 31938
 no_overlap2_3_2_2_4_1: - t_2_2 + 10646 y_3_2_2 + t_4_1 + Ps_4_1
   + 10646 y_3_4_1 - 10646 z_3_2_2_4_1 <= 21292
 no_overlap1_3_3_2_4_1: t_3_2 + Ps_3_2 + 10646 y_3_3_2 - t_4_1
   + 10646 y_3_4_1 + 10646 z_3_3_2_4_1 <= 31938
 no_overlap2_3_3_2_4_1: - t_3_2 + 10646 y_3_3_2 + t_4_1 + Ps_4_1
   + 10646 y_3_4_1 - 10646 z_3_3_2_4_1 <= 21292
 no_overlap1_4_0_2_1_2: t_0_2 + Ps_0_2 + 10646 y_4_0_2 - t_1_2
   + 10646 y_4_1_2 + 10646 z_4_0_2_1_2 <= 31938
 no_overlap2_4_0_2_1_2: - t_0_2 + 10646 y_4_0_2 + t_1_2 + Ps_1_2
   + 10646 y_4_1_2 - 10646 z_4_0_2_1_2 <= 21292
 no_overlap1_4_0_2_2_2: t_0_2 + Ps_0_2 + 10646 y_4_0_2 - t_2_2
   + 10646 y_4_2_2 + 10646 z_4_0_2_2_2 <= 31938
 no_overlap2_4_0_2_2_2: - t_0_2 + 10646 y_4_0_2 + t_2_2 + Ps_2_2
   + 10646 y_4_2_2 - 10646 z_4_0_2_2_2 <= 21292
 no_overlap1_4_0_2_3_1: t_0_2 + Ps_0_2 + 10646 y_4_0_2 - t_3_1
   + 10646 y_4_3_1 + 10646 z_4_0_2_3_1 <= 31938
 no_overlap2_4_0_2_3_1: - t_0_2 + 10646 y_4_0_2 + t_3_1 + Ps_3_1
   + 10646 y_4_3_1 - 10646 z_4_0_2_3_1 <= 21292
 no_overlap1_4_0_2_4_1: t_0_2 + Ps_0_2 + 10646 y_4_0_2 - t_4_1
   + 10646 y_4_4_1 + 10646 z_4_0_2_4_1 <= 31938
 no_overlap2_4_0_2_4_1: - t_0_2 + 10646 y_4_0_2 + t_4_1 + Ps_4_1
   + 10646 y_4_4_1 - 10646 z_4_0_2_4_1 <= 21292
 no_overlap1_4_0_2_4_2: t_0_2 + Ps_0_2 + 10646 y_4_0_2 - t_4_2
   + 10646 y_4_4_2 + 10646 z_4_0_2_4_2 <= 31938
 no_overlap2_4_0_2_4_2: - t_0_2 + 10646 y_4_0_2 + t_4_2 + Ps_4_2
   + 10646 y_4_4_2 - 10646 z_4_0_2_4_2 <= 21292
 no_overlap1_4_1_2_2_2: t_1_2 + Ps_1_2 + 10646 y_4_1_2 - t_2_2
   + 10646 y_4_2_2 + 10646 z_4_1_2_2_2 <= 31938
 no_overlap2_4_1_2_2_2: - t_1_2 + 10646 y_4_1_2 + t_2_2 + Ps_2_2
   + 10646 y_4_2_2 - 10646 z_4_1_2_2_2 <= 21292
 no_overlap1_4_1_2_3_1: t_1_2 + Ps_1_2 + 10646 y_4_1_2 - t_3_1
   + 10646 y_4_3_1 + 10646 z_4_1_2_3_1 <= 31938
 no_overlap2_4_1_2_3_1: - t_1_2 + 10646 y_4_1_2 + t_3_1 + Ps_3_1
   + 10646 y_4_3_1 - 10646 z_4_1_2_3_1 <= 21292
 no_overlap1_4_1_2_4_1: t_1_2 + Ps_1_2 + 10646 y_4_1_2 - t_4_1
   + 10646 y_4_4_1 + 10646 z_4_1_2_4_1 <= 31938
 no_overlap2_4_1_2_4_1: - t_1_2 + 10646 y_4_1_2 + t_4_1 + Ps_4_1
   + 10646 y_4_4_1 - 10646 z_4_1_2_4_1 <= 21292
 no_overlap1_4_1_2_4_2: t_1_2 + Ps_1_2 + 10646 y_4_1_2 - t_4_2
   + 10646 y_4_4_2 + 10646 z_4_1_2_4_2 <= 31938
 no_overlap2_4_1_2_4_2: - t_1_2 + 10646 y_4_1_2 + t_4_2 + Ps_4_2
   + 10646 y_4_4_2 - 10646 z_4_1_2_4_2 <= 21292
 no_overlap1_4_2_2_3_1: t_2_2 + Ps_2_2 + 10646 y_4_2_2 - t_3_1
   + 10646 y_4_3_1 + 10646 z_4_2_2_3_1 <= 31938
 no_overlap2_4_2_2_3_1: - t_2_2 + 10646 y_4_2_2 + t_3_1 + Ps_3_1
   + 10646 y_4_3_1 - 10646 z_4_2_2_3_1 <= 21292
 no_overlap1_4_2_2_4_1: t_2_2 + Ps_2_2 + 10646 y_4_2_2 - t_4_1
   + 10646 y_4_4_1 + 10646 z_4_2_2_4_1 <= 31938
 no_overlap2_4_2_2_4_1: - t_2_2 + 10646 y_4_2_2 + t_4_1 + Ps_4_1
   + 10646 y_4_4_1 - 10646 z_4_2_2_4_1 <= 21292
 no_overlap1_4_2_2_4_2: t_2_2 + Ps_2_2 + 10646 y_4_2_2 - t_4_2
   + 10646 y_4_4_2 + 10646 z_4_2_2_4_2 <= 31938
 no_overlap2_4_2_2_4_2: - t_2_2 + 10646 y_4_2_2 + t_4_2 + Ps_4_2
   + 10646 y_4_4_2 - 10646 z_4_2_2_4_2 <= 21292
 no_overlap1_4_3_1_4_1: t_3_1 + Ps_3_1 + 10646 y_4_3_1 - t_4_1
   + 10646 y_4_4_1 + 10646 z_4_3_1_4_1 <= 31938
 no_overlap2_4_3_1_4_1: - t_3_1 + 10646 y_4_3_1 + t_4_1 + Ps_4_1
   + 10646 y_4_4_1 - 10646 z_4_3_1_4_1 <= 21292
 no_overlap1_4_3_1_4_2: t_3_1 + Ps_3_1 + 10646 y_4_3_1 - t_4_2
   + 10646 y_4_4_2 + 10646 z_4_3_1_4_2 <= 31938
 no_overlap2_4_3_1_4_2: - t_3_1 + 10646 y_4_3_1 + t_4_2 + Ps_4_2
   + 10646 y_4_4_2 - 10646 z_4_3_1_4_2 <= 21292
 no_overlap1_4_4_1_4_2: t_4_1 + Ps_4_1 + 10646 y_4_4_1 - t_4_2
   + 10646 y_4_4_2 + 10646 z_4_4_1_4_2 <= 31938
 no_overlap2_4_4_1_4_2: - t_4_1 + 10646 y_4_4_1 + t_4_2 + Ps_4_2
   + 10646 y_4_4_2 - 10646 z_4_4_1_4_2 <= 21292
 no_overlap1_5_1_2_2_2: t_1_2 + Ps_1_2 + 10646 y_5_1_2 - t_2_2
   + 10646 y_5_2_2 + 10646 z_5_1_2_2_2 <= 31938
 no_overlap2_5_1_2_2_2: - t_1_2 + 10646 y_5_1_2 + t_2_2 + Ps_2_2
   + 10646 y_5_2_2 - 10646 z_5_1_2_2_2 <= 21292
 no_overlap1_5_1_2_3_2: t_1_2 + Ps_1_2 + 10646 y_5_1_2 - t_3_2
   + 10646 y_5_3_2 + 10646 z_5_1_2_3_2 <= 31938
 no_overlap2_5_1_2_3_2: - t_1_2 + 10646 y_5_1_2 + t_3_2 + Ps_3_2
   + 10646 y_5_3_2 - 10646 z_5_1_2_3_2 <= 21292
 no_overlap1_5_1_2_4_2: t_1_2 + Ps_1_2 + 10646 y_5_1_2 - t_4_2
   + 10646 y_5_4_2 + 10646 z_5_1_2_4_2 <= 31938
 no_overlap2_5_1_2_4_2: - t_1_2 + 10646 y_5_1_2 + t_4_2 + Ps_4_2
   + 10646 y_5_4_2 - 10646 z_5_1_2_4_2 <= 21292
 no_overlap1_5_2_2_3_2: t_2_2 + Ps_2_2 + 10646 y_5_2_2 - t_3_2
   + 10646 y_5_3_2 + 10646 z_5_2_2_3_2 <= 31938
 no_overlap2_5_2_2_3_2: - t_2_2 + 10646 y_5_2_2 + t_3_2 + Ps_3_2
   + 10646 y_5_3_2 - 10646 z_5_2_2_3_2 <= 21292
 no_overlap1_5_2_2_4_2: t_2_2 + Ps_2_2 + 10646 y_5_2_2 - t_4_2
   + 10646 y_5_4_2 + 10646 z_5_2_2_4_2 <= 31938
 no_overlap2_5_2_2_4_2: - t_2_2 + 10646 y_5_2_2 + t_4_2 + Ps_4_2
   + 10646 y_5_4_2 - 10646 z_5_2_2_4_2 <= 21292
 no_overlap1_5_3_2_4_2: t_3_2 + Ps_3_2 + 10646 y_5_3_2 - t_4_2
   + 10646 y_5_4_2 + 10646 z_5_3_2_4_2 <= 31938
 no_overlap2_5_3_2_4_2: - t_3_2 + 10646 y_5_3_2 + t_4_2 + Ps_4_2
   + 10646 y_5_4_2 - 10646 z_5_3_2_4_2 <= 21292
 cmax_job_0: Cmax - t_0_2 - Ps_0_2 >= 0
 cmax_job_1: Cmax - t_1_2 - Ps_1_2 >= 0
 cmax_job_2: Cmax - t_2_2 - Ps_2_2 >= 0
 cmax_job_3: Cmax - t_3_2 - Ps_3_2 >= 0
 cmax_job_4: Cmax - t_4_2 - Ps_4_2 >= 0
Bounds
Binaries
 y_0_0_0 y_1_0_0 y_2_0_0 y_3_0_1 y_1_0_1 y_3_0_2 y_4_0_2 y_0_1_0 y_2_1_0
 y_2_1_1 y_1_1_1 y_4_1_2 y_5_1_2 y_0_2_0 y_1_2_0 y_2_2_1 y_3_2_1 y_3_2_2
 y_4_2_2 y_5_2_2 y_0_3_0 y_1_3_0 y_4_3_1 y_3_3_2 y_5_3_2 y_1_4_0 y_2_4_0
 y_0_4_0 y_2_4_1 y_3_4_1 y_4_4_1 y_4_4_2 y_5_4_2 z_0_0_0_1_0 z_0_0_0_2_0
 z_0_0_0_3_0 z_0_0_0_4_0 z_0_1_0_2_0 z_0_1_0_3_0 z_0_1_0_4_0 z_0_2_0_3_0
 z_0_2_0_4_0 z_0_3_0_4_0 z_1_0_0_0_1 z_1_0_0_1_1 z_1_0_0_2_0 z_1_0_0_3_0
 z_1_0_0_4_0 z_1_0_1_1_1 z_1_0_1_2_0 z_1_0_1_3_0 z_1_0_1_4_0 z_1_1_1_2_0
 z_1_1_1_3_0 z_1_1_1_4_0 z_1_2_0_3_0 z_1_2_0_4_0 z_1_3_0_4_0 z_2_0_0_1_0
 z_2_0_0_1_1 z_2_0_0_2_1 z_2_0_0_4_0 z_2_0_0_4_1 z_2_1_0_1_1 z_2_1_0_2_1
 z_2_1_0_4_0 z_2_1_0_4_1 z_2_1_1_2_1 z_2_1_1_4_0 z_2_1_1_4_1 z_2_2_1_4_0
 z_2_2_1_4_1 z_2_4_0_4_1 z_3_0_1_0_2 z_3_0_1_2_1 z_3_0_1_2_2 z_3_0_1_3_2
 z_3_0_1_4_1 z_3_0_2_2_1 z_3_0_2_2_2 z_3_0_2_3_2 z_3_0_2_4_1 z_3_2_1_2_2
 z_3_2_1_3_2 z_3_2_1_4_1 z_3_2_2_3_2 z_3_2_2_4_1 z_3_3_2_4_1 z_4_0_2_1_2
 z_4_0_2_2_2 z_4_0_2_3_1 z_4_0_2_4_1 z_4_0_2_4_2 z_4_1_2_2_2 z_4_1_2_3_1
 z_4_1_2_4_1 z_4_1_2_4_2 z_4_2_2_3_1 z_4_2_2_4_1 z_4_2_2_4_2 z_4_3_1_4_1
 z_4_3_1_4_2 z_4_4_1_4_2 z_5_1_2_2_2 z_5_1_2_3_2 z_5_1_2_4_2 z_5_2_2_3_2
 z_5_2_2_4_2 z_5_3_2_4_2
End
